qbf_easy_train/easy_116_UNSAT.qdimacs
p cnf 31 87
a 11 21 30 0
e 1 2 3 4 5 6 7 8 9 10 12 13 14 15 16 17 18 19 20 22 23 24 25 26 27 28 29 31 0
1 2 -3 0
-1 -2 -3 0
1 -2 3 0
-1 2 3 0
6 -4 0
6 -5 0
4 5 -6 0
7 3 0
7 6 0
-3 -6 -7 0
-9 4 0
-9 -1 0
-4 1 9 0
-10 -9 0
-10 2 0
9 -2 10 0
11 -8 0
11 -10 0
8 10 -11 0
-12 -9 -13 0
12 9 -13 0
-12 9 13 0
12 -9 13 0
-9 -13 -14 0
9 13 -14 0
-9 13 14 0
9 -13 14 0
-15 -14 0
-15 -4 0
14 4 15 0
16 -11 0
16 -15 0
11 15 -16 0
18 17 0
18 14 0
-17 -14 -18 0
-16 -18 -19 0
16 18 -19 0
-16 18 19 0
16 -18 19 0
20 -4 0
20 17 0
4 -17 -20 0
-20 -5 -21 0
20 5 -21 0
-20 5 21 0
20 -5 21 0
23 22 0
23 20 0
-22 -20 -23 0
4 23 -24 0
-4 -23 -24 0
4 -23 24 0
-4 23 24 0
-25 24 0
-25 -22 0
-24 22 25 0
26 5 0
26 5 0
-5 -26 0
-5 -26 -27 0
5 26 -27 0
-5 26 27 0
5 -26 27 0
-28 25 0
-28 -27 0
-25 27 28 0
21 -28 -29 0
-21 28 -29 0
21 28 29 0
-21 -28 29 0
30 19 0
30 29 0
-19 -29 -30 0
-7 30 -31 0
7 -30 -31 0
-7 -30 31 0
7 30 31 0
-18 19 26 -8 -17 0
9 4 14 -26 0
10 8 -20 29 30 -31 -22 0
-24 -4 18 -29 0
27 -7 -17 31 -16 0
13 29 3 -12 0
-1 15 -4 -24 0
26 -23 27 -25 14 -30 -1 0
31 0
