sat_easy_train/easy_116_UNSAT.dimacs
p cnf 90 280
3 1 0
3 2 0
-1 -2 -3 0
5 -3 0
5 4 0
3 -4 -5 0
2 -6 -7 0
-2 6 -7 0
2 6 7 0
-2 -6 7 0
8 1 -9 0
-8 -1 -9 0
8 -1 9 0
-8 1 9 0
10 7 0
10 9 0
-7 -9 -10 0
11 -5 0
11 10 0
5 -10 -11 0
12 -6 0
12 2 0
6 -2 -12 0
13 -4 0
13 -12 0
4 12 -13 0
11 13 -14 0
-11 -13 -14 0
11 -13 14 0
-11 13 14 0
-16 -15 0
-16 4 0
15 -4 16 0
14 16 -17 0
-14 -16 -17 0
14 -16 17 0
-14 16 17 0
20 19 0
20 -1 0
-19 1 -20 0
21 18 0
21 -20 0
-18 20 -21 0
22 -18 0
22 21 0
18 -21 -22 0
8 21 -23 0
-8 -21 -23 0
8 -21 23 0
-8 21 23 0
24 19 0
24 3 0
-19 -3 -24 0
-25 15 0
-25 24 0
-15 -24 25 0
23 25 -26 0
-23 -25 -26 0
23 -25 26 0
-23 25 26 0
-28 -8 0
-28 -27 0
8 27 28 0
29 28 0
29 20 0
-28 -20 -29 0
-31 -29 0
-31 30 0
29 -30 31 0
-15 -31 -32 0
15 31 -32 0
-15 31 32 0
15 -31 32 0
33 26 0
33 32 0
-26 -32 -33 0
34 -27 0
34 -31 0
27 31 -34 0
-35 33 0
-35 34 0
-33 -34 35 0
-36 -22 0
-36 35 0
22 -35 36 0
-37 -17 0
-37 36 0
17 -36 37 0
-39 38 0
-39 -2 0
-38 2 39 0
30 -28 -41 0
-30 28 -41 0
30 28 41 0
-30 -28 41 0
40 41 -42 0
-40 -41 -42 0
40 -41 42 0
-40 41 42 0
-43 -39 0
-43 -42 0
39 42 43 0
2 -31 -44 0
-2 31 -44 0
2 31 44 0
-2 -31 44 0
-43 44 -45 0
43 -44 -45 0
-43 -44 45 0
43 44 45 0
47 46 0
47 1 0
-46 -1 -47 0
-48 7 0
-48 -47 0
-7 47 48 0
40 -8 -49 0
-40 8 -49 0
40 8 49 0
-40 -8 49 0
-50 -49 0
-50 -24 0
49 24 50 0
-19 -6 -51 0
19 6 -51 0
-19 6 51 0
19 -6 51 0
50 51 -52 0
-50 -51 -52 0
50 -51 52 0
-50 51 52 0
-53 -49 0
-53 40 0
49 -40 53 0
52 53 -54 0
-52 -53 -54 0
52 -53 54 0
-52 53 54 0
55 -48 0
55 54 0
48 -54 -55 0
-56 -24 0
-56 -20 0
24 20 56 0
-57 -27 0
-57 30 0
27 -30 57 0
58 56 0
58 -57 0
-56 57 -58 0
59 40 0
59 4 0
-40 -4 -59 0
-38 59 -60 0
38 -59 -60 0
-38 -59 60 0
38 59 60 0
-61 -60 0
-61 -15 0
60 15 61 0
-62 61 0
-62 -41 0
-61 41 62 0
29 61 -63 0
-29 -61 -63 0
29 -61 63 0
-29 61 63 0
-65 63 0
-65 -64 0
-63 64 65 0
-66 62 0
-66 -65 0
-62 65 66 0
-58 66 -67 0
58 -66 -67 0
-58 -66 67 0
58 66 67 0
68 -55 0
68 -67 0
55 67 -68 0
-47 -69 0
47 -69 0
-69 -21 -70 0
69 21 -70 0
-69 21 70 0
69 -21 70 0
-71 49 0
-71 -70 0
-49 70 71 0
72 68 0
72 -71 0
-68 71 -72 0
74 73 0
74 -57 0
-73 57 -74 0
75 2 0
75 -73 0
-2 73 -75 0
-76 27 0
-76 8 0
-27 -8 76 0
77 -75 0
77 76 0
75 -76 -77 0
78 74 0
78 -77 0
-74 77 -78 0
-79 -72 0
-79 78 0
72 -78 79 0
-45 79 -80 0
45 -79 -80 0
-45 -79 80 0
45 79 80 0
-82 -61 0
-82 81 0
61 -81 82 0
83 -47 0
83 -28 0
47 28 -83 0
-47 -31 -84 0
47 31 -84 0
-47 31 84 0
47 -31 84 0
85 -1 0
85 2 0
1 -2 -85 0
-86 -84 0
-86 85 0
84 -85 86 0
-87 -83 0
-87 86 0
83 -86 87 0
-82 87 -88 0
82 -87 -88 0
-82 -87 88 0
82 87 88 0
-89 -80 0
-89 88 0
80 -88 89 0
90 -37 0
90 -89 0
37 89 -90 0
80 30 4 -35 0
53 57 0
15 6 -85 78 0
87 81 -66 -52 -45 -89 0
30 -28 -2 87 -60 0
60 67 0
60 -59 40 76 0
82 -33 0
-3 -90 39 -6 0
19 -76 -88 62 0
-46 -41 77 0
-58 -43 -75 57 29 0
84 -54 -78 43 -75 0
4 8 -31 -38 -30 0
-85 37 27 0
65 64 0
21 27 0
-67 21 0
-74 -18 -13 -69 0
31 -29 -19 0
-15 -26 0
25 88 53 0
86 -22 -25 46 -79 0
-26 51 50 0
-4 24 31 34 -77 0
-20 86 -77 22 -76 90 0
36 -6 3 -40 0
-25 -20 56 0
2 -66 -57 -63 -89 -82 0
-68 -51 -77 0
40 -76 54 -25 59 0
-25 83 -80 40 -89 -71 0
69 1 -15 0
58 -74 26 1 -23 0
51 44 -60 24 -57 0
-28 3 0
90 0
